src/asp/benchmarks/medium1.lp
citta(marsciano).
citta(todi).
citta(assisi).
citta(terni).
citta(orvieto).
citta(san_giustino).

richiesta(marsciano, strade, 39).
richiesta(marsciano, fiumi, 34).
richiesta(marsciano, scuole, 54).
richiesta(marsciano, parchi, 33).
richiesta(marsciano, energia, 15).

richiesta(todi, strade, 0).
richiesta(todi, fiumi, 21).
richiesta(todi, scuole, 93).
richiesta(todi, parchi, 82).
richiesta(todi, energia, 62).

richiesta(assisi, strade, 2).
richiesta(assisi, fiumi, 44).
richiesta(assisi, scuole, 44).
richiesta(assisi, parchi, 6).
richiesta(assisi, energia, 35).

richiesta(terni, strade, 15).
richiesta(terni, fiumi, 8).
richiesta(terni, scuole, 111).
richiesta(terni, parchi, 71).
richiesta(terni, energia, 9).

richiesta(orvieto, strade, 0).
richiesta(orvieto, fiumi, 33).
richiesta(orvieto, scuole, 6).
richiesta(orvieto, parchi, 46).
richiesta(orvieto, energia, 42).

richiesta(san_giustino, strade, 11).
richiesta(san_giustino, fiumi, 23).
richiesta(san_giustino, scuole, 14).
richiesta(san_giustino, parchi, 7).
richiesta(san_giustino, energia, 25).

