src/minizinc/benchmarks/medium1.dzn
COMUNI = {
	todi,
	assisi,
	terni,
	narni,
	castiglione_del_lago,
	umbertide,
	spoleto,
	perugia,
};

NUMERO_COMUNI = 8;

ABITANTI_PER_COMUNE = [15, 27, 106, 17, 15, 16, 36, 161];

STRADE_TRA_COMUNI = [|
	false, false, false, false, false, false, false, false |
	false, false, false, false, false, false, false, false |
	false, false, false, true, false, false, true, false |
	false, false, true, false, false, false, false, false |
	false, false, false, false, false, false, false, false |
	false, false, false, false, false, false, false, true |
	false, false, true, false, false, false, false, false |
	false, false, false, false, false, true, false, false |
|];

RICHIESTE = [|
	0, 28, 6, 30, 29 |
	41, 21, 6, 41, 11 |
	60, 22, 23, 30, 5 |
	48, 50, 3, 5, 37 |
	2, 81, 19, 9, 22 |
	22, 5, 0, 28, 2 |
	56, 52, 18, 16, 24 |
	1, 71, 22, 24, 8 |
|];
